p cnf 41 108
a 9 33 0
e 1 2 3 4 5 6 7 8 10 11 12 13 14 15 16 17 18 19 20 21 22 23 24 25 26 27 28 29 30 31 32 34 35 36 37 38 39 40 41 0
4 -2 0
4 -3 0
2 3 -4 0
1 -4 -5 0
-1 4 -5 0
1 4 5 0
-1 -4 5 0
7 -5 0
7 -6 0
5 6 -7 0
4 8 -9 0
-4 -8 -9 0
4 -8 9 0
-4 8 9 0
10 7 0
10 9 0
-7 -9 -10 0
-3 -11 0
3 -11 0
-1 12 0
1 12 0
13 -11 0
13 12 0
11 -12 -13 0
-15 -14 0
-15 1 0
14 -1 15 0
16 3 0
16 -2 0
-3 2 -16 0
17 15 0
17 16 0
-15 -16 -17 0
18 13 0
18 17 0
-13 -17 -18 0
19 -4 0
19 -3 0
4 3 -19 0
-6 1 -20 0
6 -1 -20 0
-6 -1 20 0
6 1 20 0
-21 19 0
-21 -20 0
-19 20 21 0
-22 23 0
22 23 0
-25 -23 0
-25 24 0
23 -24 25 0
26 21 0
26 -25 0
-21 25 -26 0
-28 -27 0
-28 -4 0
27 4 28 0
-29 -28 0
-29 -27 0
28 27 29 0
28 6 -30 0
-28 -6 -30 0
28 -6 30 0
-28 6 30 0
31 22 0
31 30 0
-22 -30 -31 0
-29 -31 -32 0
29 31 -32 0
-29 31 32 0
29 -31 32 0
-33 26 0
-33 32 0
-26 -32 33 0
8 -34 0
-8 -34 0
-35 8 -36 0
35 -8 -36 0
-35 -8 36 0
35 8 36 0
36 -2 -37 0
-36 2 -37 0
36 2 37 0
-36 -2 37 0
-34 -37 -38 0
34 37 -38 0
-34 37 38 0
34 -37 38 0
39 33 0
39 -38 0
-33 38 -39 0
-40 18 0
-40 39 0
-18 -39 40 0
41 -10 0
41 -40 0
10 40 -41 0
13 -20 24 0
16 15 -32 7 20 10 21 0
33 41 24 37 -36 -18 -12 0
-12 29 34 -33 -20 3 -21 0
13 -10 -23 8 -1 40 -15 0
11 40 -23 -20 29 0
10 -22 -29 0
11 -5 -28 7 38 -36 4 0
17 -30 -15 0
-39 -29 38 25 -26 9 0
41 0
